webassembly/ejemplos_dzn/7/folder7_json_50.dzn
TERM = { '.', 'in_1', 'local_0', 'local_1', 'in_2', 's(1)', 's(0)', 'in_0'};
null = '.';
s = 7;
n = 8;
ndeps = 2;
max_registers_sz = 5;
NR = 2;
registers = [|'local_0', 's(0)', |'local_1', 'in_2'|];
dependencies = [|'i32.load16_u_0', 'i32.store_5', |'i32.load_3', 'i32.store_5'|];
GET_ENUM = { GET1, GET2, GET3, GET4, GET5, GET6, GET7};
SET_ENUM = { SET1, SET2, SET3, SET4, SET5, SET6, SET7};
TEE_ENUM = { TEE1, TEE2, TEE3, TEE4, TEE5, TEE6, TEE7};
N = 3;
OP = { 'i32.load16_u_0', 'i32.load_3', 'i32.store_5' };
in_ops = [1, 1, 2 ];
out_ops = [1, 1, 0 ];
in1 = ['in_0', 'in_1', 's(0)' ];
in2 = ['.', '.', 's(1)' ];
in3 = ['.', '.', '.' ];
out1 = ['s(0)', 's(1)', '.' ];
out2 = ['.', '.', '.' ];
out3 = ['.', '.', '.' ];
comm = [false, false, false ];
gas = [1, 1, 1 ];
sz = [1, 1, 1 ];
stor = [false, false, true ];
lb = [ 1, 1, 1 ];
ub = [ 7, 7, 7 ];
startstack = [ 'in_0', 'in_1', 'in_2', null, null, null, null, null ];
endstack = [ 'in_2', null, null, null, null, null, null, null ];
